NAME : LPS-n14-m28
COMMENT : (Lartu-Peter-Santi Plot, instance 4428 out of 39200. 14 customers.)
TYPE : CVRP
DIMENSION : 14
EDGE_WEIGHT_TYPE : EUC_2D
CAPACITY : 121
NODE_COORD_SECTION
 1 2 75
 2 79 77
 3 33 34
 4 7 69
 5 59 77
 6 58 26
 7 92 53
 8 53 49
 9 96 73
 10 66 4
 11 38 20
 12 51 35
 13 73 65
 14 22 5
DEMAND_SECTION
1 0
2 77
3 25
4 49
5 33
6 95
7 117
8 97
9 121
10 31
11 38
12 61
13 36
14 90
DEPOT_SECTION
 1
 -1
EOF
